maximize
+16 x0 +29 x1 +20 x2 +18 x3 +16 x4 +9 x5 +13 x6 +9 x7 +3 x8 +25 x9 +18 x10 +28 x11 +27 x12 +4 x13 +14 x14 +25 x15 +12 x16 +19 x17 +11 x18 +18 x19 +9 x20 +11 x21 +15 x22 +27 x23 +26 x24 +18 x25 +21 x26 +10 x27 +27 x28 +16 x29 +16 x30 +12 x31 +21 x32 +15 x33 +20 x34 +22 x35 +28 x36 +8 x37 +19 x38 +29 x39 +6 x40 +12 x41 +20 x42 +14 x43 +18 x44 +29 x45 +10 x46 +18 x47 +24 x48 +23 x49 +5 x50 +27 x51 +16 x52 +19 x53 +12 x54 +29 x55 +18 x56 +14 x57 +29 x58 +19 x59 +23 x60 +29 x61 +13 x62 +28 x63 +8 x64 +19 x65 +23 x66 +9 x67 +19 x68 +20 x69 +22 x70 +14 x71 +3 x72 +7 x73 +18 x74 +27 x75 +14 x76 +18 x77 +14 x78 +6 x79 +13 x80 +22 x81 +10 x82 +20 x83 +27 x84 +13 x85 +17 x86 +21 x87 +10 x88 +19 x89 +24 x90 +12 x91 +13 x92 +6 x93 +5 x94 +12 x95 +21 x96 +27 x97 +22 x98 +13 x99
subject to
cap: +17 x0 +17 x1 +9 x2 +12 x3 +16 x4 +11 x5 +16 x6 +6 x7 +2 x8 +11 x9 +10 x10 +18 x11 +9 x12 +3 x13 +6 x14 +6 x15 +3 x16 +17 x17 +17 x18 +16 x19 +3 x20 +4 x21 +9 x22 +12 x23 +12 x24 +6 x25 +11 x26 +12 x27 +12 x28 +11 x29 +12 x30 +8 x31 +6 x32 +4 x33 +11 x34 +8 x35 +6 x36 +15 x37 +9 x38 +11 x39 +8 x40 +11 x41 +5 x42 +7 x43 +15 x44 +2 x45 +15 x46 +2 x47 +18 x48 +2 x49 +7 x50 +8 x51 +11 x52 +8 x53 +18 x54 +17 x55 +9 x56 +4 x57 +19 x58 +5 x59 +8 x60 +14 x61 +13 x62 +19 x63 +18 x64 +7 x65 +12 x66 +13 x67 +15 x68 +17 x69 +7 x70 +10 x71 +14 x72 +12 x73 +4 x74 +12 x75 +12 x76 +8 x77 +9 x78 +6 x79 +11 x80 +13 x81 +2 x82 +9 x83 +18 x84 +13 x85 +4 x86 +7 x87 +6 x88 +7 x89 +16 x90 +16 x91 +13 x92 +19 x93 +8 x94 +17 x95 +8 x96 +4 x97 +2 x98 +8 x99 <= 461.7
Binary
x0 x1 x2 x3 x4 x5 x6 x7 x8 x9 x10 x11 x12 x13 x14 x15 x16 x17 x18 x19 x20 x21 x22 x23 x24 x25 x26 x27 x28 x29 x30 x31 x32 x33 x34 x35 x36 x37 x38 x39 x40 x41 x42 x43 x44 x45 x46 x47 x48 x49 x50 x51 x52 x53 x54 x55 x56 x57 x58 x59 x60 x61 x62 x63 x64 x65 x66 x67 x68 x69 x70 x71 x72 x73 x74 x75 x76 x77 x78 x79 x80 x81 x82 x83 x84 x85 x86 x87 x88 x89 x90 x91 x92 x93 x94 x95 x96 x97 x98 x99
end
