maximize
+27 x0 +9 x1 +7 x2 +4 x3 +22 x4 +6 x5 +20 x6 +23 x7 +11 x8 +20 x9 +10 x10 +25 x11 +11 x12 +15 x13 +14 x14 +17 x15 +26 x16 +27 x17 +17 x18 +14 x19 +28 x20 +20 x21 +22 x22 +21 x23 +12 x24 +22 x25 +22 x26 +11 x27 +14 x28 +19 x29 +11 x30 +20 x31 +24 x32 +9 x33 +14 x34 +4 x35 +21 x36 +12 x37 +20 x38 +10 x39 +12 x40 +4 x41 +27 x42 +8 x43 +22 x44 +5 x45 +26 x46 +11 x47 +14 x48 +29 x49 +29 x50 +29 x51 +8 x52 +28 x53 +23 x54 +29 x55 +28 x56 +23 x57 +18 x58 +8 x59 +29 x60 +26 x61 +6 x62 +29 x63 +21 x64 +24 x65 +6 x66 +6 x67 +5 x68 +28 x69 +29 x70 +3 x71 +10 x72 +13 x73 +18 x74 +22 x75 +13 x76 +18 x77 +9 x78 +29 x79 +27 x80 +29 x81 +10 x82 +9 x83 +13 x84 +6 x85 +17 x86 +27 x87 +15 x88 +26 x89 +12 x90 +24 x91 +12 x92 +21 x93 +7 x94 +3 x95 +29 x96 +5 x97 +17 x98 +12 x99 +17 x100 +29 x101 +28 x102 +13 x103 +7 x104 +29 x105 +28 x106 +5 x107 +24 x108 +12 x109 +9 x110 +3 x111 +15 x112 +19 x113 +5 x114 +26 x115 +25 x116 +25 x117 +20 x118 +20 x119 +15 x120 +26 x121 +20 x122 +12 x123 +13 x124 +19 x125 +28 x126 +5 x127 +7 x128 +18 x129 +16 x130 +5 x131 +10 x132 +7 x133 +24 x134 +19 x135 +22 x136 +28 x137 +12 x138 +5 x139 +17 x140 +21 x141 +27 x142 +8 x143 +14 x144 +3 x145 +6 x146 +23 x147 +14 x148 +23 x149 +26 x150 +18 x151 +9 x152 +14 x153 +29 x154 +3 x155 +7 x156 +18 x157 +19 x158 +22 x159 +19 x160 +28 x161 +27 x162 +27 x163 +12 x164 +10 x165 +9 x166 +19 x167 +20 x168 +29 x169 +10 x170 +27 x171 +15 x172 +8 x173 +3 x174 +17 x175 +16 x176 +8 x177 +29 x178 +18 x179 +20 x180 +15 x181 +6 x182 +27 x183 +17 x184 +18 x185 +26 x186 +10 x187 +12 x188 +25 x189 +29 x190 +5 x191 +9 x192 +19 x193 +4 x194 +18 x195 +20 x196 +22 x197 +27 x198 +27 x199 +29 x200 +15 x201 +29 x202 +21 x203 +28 x204 +9 x205 +16 x206 +4 x207 +8 x208 +28 x209 +11 x210 +26 x211 +13 x212 +22 x213 +20 x214 +12 x215 +3 x216 +4 x217 +14 x218 +26 x219 +3 x220 +5 x221 +23 x222 +26 x223 +28 x224 +23 x225 +23 x226 +10 x227 +14 x228 +20 x229 +15 x230 +16 x231 +19 x232 +4 x233 +16 x234 +11 x235 +23 x236 +12 x237 +23 x238 +24 x239 +11 x240 +29 x241 +17 x242 +27 x243 +29 x244 +10 x245 +14 x246 +20 x247 +28 x248 +15 x249 +15 x250 +20 x251 +20 x252 +16 x253 +7 x254 +13 x255 +6 x256 +15 x257 +25 x258 +6 x259 +22 x260 +10 x261 +5 x262 +22 x263 +9 x264 +27 x265 +11 x266 +13 x267 +28 x268 +4 x269 +18 x270 +10 x271 +17 x272 +13 x273 +19 x274 +14 x275 +11 x276 +14 x277 +12 x278 +16 x279 +28 x280 +20 x281 +17 x282 +12 x283 +13 x284 +27 x285 +23 x286 +29 x287 +10 x288 +3 x289 +13 x290 +5 x291 +21 x292 +3 x293 +9 x294 +11 x295 +27 x296 +28 x297 +13 x298 +3 x299
subject to
cap: +12 x0 +6 x1 +18 x2 +15 x3 +3 x4 +7 x5 +4 x6 +7 x7 +12 x8 +4 x9 +7 x10 +7 x11 +2 x12 +3 x13 +9 x14 +13 x15 +18 x16 +2 x17 +11 x18 +10 x19 +13 x20 +3 x21 +15 x22 +5 x23 +8 x24 +7 x25 +13 x26 +4 x27 +13 x28 +6 x29 +4 x30 +13 x31 +3 x32 +5 x33 +12 x34 +6 x35 +17 x36 +2 x37 +5 x38 +3 x39 +3 x40 +3 x41 +4 x42 +18 x43 +15 x44 +6 x45 +7 x46 +7 x47 +7 x48 +12 x49 +11 x50 +3 x51 +4 x52 +17 x53 +14 x54 +3 x55 +8 x56 +11 x57 +6 x58 +10 x59 +17 x60 +10 x61 +4 x62 +15 x63 +8 x64 +3 x65 +3 x66 +15 x67 +6 x68 +19 x69 +2 x70 +11 x71 +13 x72 +15 x73 +8 x74 +3 x75 +18 x76 +3 x77 +10 x78 +16 x79 +10 x80 +12 x81 +14 x82 +18 x83 +5 x84 +11 x85 +12 x86 +5 x87 +9 x88 +5 x89 +8 x90 +13 x91 +12 x92 +17 x93 +2 x94 +13 x95 +7 x96 +10 x97 +9 x98 +7 x99 +8 x100 +5 x101 +3 x102 +3 x103 +5 x104 +4 x105 +2 x106 +12 x107 +6 x108 +8 x109 +9 x110 +5 x111 +15 x112 +17 x113 +3 x114 +11 x115 +5 x116 +11 x117 +5 x118 +15 x119 +6 x120 +11 x121 +2 x122 +2 x123 +8 x124 +17 x125 +4 x126 +19 x127 +8 x128 +6 x129 +3 x130 +7 x131 +13 x132 +16 x133 +9 x134 +18 x135 +2 x136 +4 x137 +14 x138 +2 x139 +10 x140 +6 x141 +6 x142 +15 x143 +18 x144 +10 x145 +9 x146 +12 x147 +4 x148 +6 x149 +16 x150 +19 x151 +10 x152 +12 x153 +17 x154 +9 x155 +4 x156 +4 x157 +6 x158 +17 x159 +11 x160 +6 x161 +7 x162 +5 x163 +4 x164 +16 x165 +3 x166 +6 x167 +12 x168 +6 x169 +8 x170 +8 x171 +2 x172 +17 x173 +2 x174 +11 x175 +12 x176 +5 x177 +12 x178 +7 x179 +2 x180 +7 x181 +5 x182 +18 x183 +18 x184 +19 x185 +8 x186 +8 x187 +6 x188 +18 x189 +2 x190 +18 x191 +17 x192 +15 x193 +2 x194 +19 x195 +8 x196 +19 x197 +19 x198 +14 x199 +12 x200 +7 x201 +2 x202 +4 x203 +4 x204 +19 x205 +3 x206 +11 x207 +15 x208 +13 x209 +8 x210 +17 x211 +11 x212 +5 x213 +18 x214 +7 x215 +13 x216 +6 x217 +14 x218 +3 x219 +3 x220 +10 x221 +3 x222 +11 x223 +4 x224 +19 x225 +6 x226 +11 x227 +4 x228 +18 x229 +16 x230 +16 x231 +13 x232 +12 x233 +6 x234 +8 x235 +4 x236 +17 x237 +17 x238 +16 x239 +17 x240 +12 x241 +14 x242 +3 x243 +10 x244 +18 x245 +11 x246 +3 x247 +6 x248 +9 x249 +4 x250 +13 x251 +12 x252 +13 x253 +17 x254 +9 x255 +13 x256 +16 x257 +17 x258 +16 x259 +11 x260 +12 x261 +12 x262 +16 x263 +14 x264 +4 x265 +7 x266 +13 x267 +14 x268 +9 x269 +17 x270 +2 x271 +11 x272 +13 x273 +13 x274 +16 x275 +4 x276 +18 x277 +17 x278 +3 x279 +17 x280 +16 x281 +3 x282 +3 x283 +10 x284 +16 x285 +9 x286 +6 x287 +14 x288 +15 x289 +10 x290 +3 x291 +9 x292 +15 x293 +8 x294 +11 x295 +17 x296 +5 x297 +15 x298 +6 x299 <= 1305.9
Binary
x0 x1 x2 x3 x4 x5 x6 x7 x8 x9 x10 x11 x12 x13 x14 x15 x16 x17 x18 x19 x20 x21 x22 x23 x24 x25 x26 x27 x28 x29 x30 x31 x32 x33 x34 x35 x36 x37 x38 x39 x40 x41 x42 x43 x44 x45 x46 x47 x48 x49 x50 x51 x52 x53 x54 x55 x56 x57 x58 x59 x60 x61 x62 x63 x64 x65 x66 x67 x68 x69 x70 x71 x72 x73 x74 x75 x76 x77 x78 x79 x80 x81 x82 x83 x84 x85 x86 x87 x88 x89 x90 x91 x92 x93 x94 x95 x96 x97 x98 x99 x100 x101 x102 x103 x104 x105 x106 x107 x108 x109 x110 x111 x112 x113 x114 x115 x116 x117 x118 x119 x120 x121 x122 x123 x124 x125 x126 x127 x128 x129 x130 x131 x132 x133 x134 x135 x136 x137 x138 x139 x140 x141 x142 x143 x144 x145 x146 x147 x148 x149 x150 x151 x152 x153 x154 x155 x156 x157 x158 x159 x160 x161 x162 x163 x164 x165 x166 x167 x168 x169 x170 x171 x172 x173 x174 x175 x176 x177 x178 x179 x180 x181 x182 x183 x184 x185 x186 x187 x188 x189 x190 x191 x192 x193 x194 x195 x196 x197 x198 x199 x200 x201 x202 x203 x204 x205 x206 x207 x208 x209 x210 x211 x212 x213 x214 x215 x216 x217 x218 x219 x220 x221 x222 x223 x224 x225 x226 x227 x228 x229 x230 x231 x232 x233 x234 x235 x236 x237 x238 x239 x240 x241 x242 x243 x244 x245 x246 x247 x248 x249 x250 x251 x252 x253 x254 x255 x256 x257 x258 x259 x260 x261 x262 x263 x264 x265 x266 x267 x268 x269 x270 x271 x272 x273 x274 x275 x276 x277 x278 x279 x280 x281 x282 x283 x284 x285 x286 x287 x288 x289 x290 x291 x292 x293 x294 x295 x296 x297 x298 x299
end
